# Solution for model problem
# Objective value = 12
CLIENT_PE14_0 1
CLIENT_PE7_1 1
CLIENT_PE13_2 1
CLIENT_PE7_3 1
CLIENT_PE2_4 1
CLIENT_PE12_5 1
src_2 1
can1_1 1
fp_1 1
can2_1 1
pulse_1 1
sink_2 1
CLIENT_PE0_0 0
CLIENT_PE1_0 0
CLIENT_PE2_0 0
CLIENT_PE3_0 0
CLIENT_PE4_0 0
CLIENT_PE5_0 0
CLIENT_PE6_0 0
CLIENT_PE7_0 0
CLIENT_PE8_0 0
CLIENT_PE9_0 0
CLIENT_PE10_0 0
CLIENT_PE11_0 0
CLIENT_PE12_0 0
CLIENT_PE13_0 0
CLIENT_PE15_0 0
CLIENT_PE16_0 0
CLIENT_PE0_1 0
CLIENT_PE2_1 0
CLIENT_PE3_1 0
CLIENT_PE4_1 0
CLIENT_PE6_1 0
CLIENT_PE13_1 0
CLIENT_PE14_1 0
CLIENT_PE0_2 0
CLIENT_PE2_2 0
CLIENT_PE3_2 0
CLIENT_PE4_2 0
CLIENT_PE6_2 0
CLIENT_PE7_2 0
CLIENT_PE14_2 0
CLIENT_PE0_3 0
CLIENT_PE2_3 0
CLIENT_PE3_3 0
CLIENT_PE4_3 0
CLIENT_PE6_3 0
CLIENT_PE13_3 0
CLIENT_PE14_3 0
CLIENT_PE0_4 0
CLIENT_PE3_4 0
CLIENT_PE4_4 0
CLIENT_PE6_4 0
CLIENT_PE7_4 0
CLIENT_PE13_4 0
CLIENT_PE14_4 0
CLIENT_PE0_5 0
CLIENT_PE1_5 0
CLIENT_PE2_5 0
CLIENT_PE3_5 0
CLIENT_PE4_5 0
CLIENT_PE5_5 0
CLIENT_PE6_5 0
CLIENT_PE7_5 0
CLIENT_PE8_5 0
CLIENT_PE9_5 0
CLIENT_PE10_5 0
CLIENT_PE11_5 0
CLIENT_PE13_5 0
CLIENT_PE14_5 0
CLIENT_PE15_5 0
CLIENT_PE16_5 0
src_0 0
src_1 0
src_3 0
src_4 0
can1_0 0
can1_2 0
can1_3 0
can1_4 0
fp_0 0
fp_2 0
fp_3 0
fp_4 0
can2_0 0
can2_2 0
can2_3 0
can2_4 0
pulse_0 0
pulse_2 0
pulse_3 0
pulse_4 0
sink_0 0
sink_1 0
sink_3 0
sink_4 0
